p edge 1399 1359
e 1 2
e 1 3
e 1 4
e 1 5
e 1 6
e 1 7
e 1 8
e 1 9
e 1 10
e 1 11
e 1 12
e 1 13
e 1 14
e 1 15
e 1 16
e 1 17
e 1 18
e 1 19
e 1 20
e 1 21
e 1 22
e 1 23
e 1 24
e 1 25
e 1 26
e 1 27
e 1 28
e 1 29
e 1 30
e 31 32
e 31 33
e 31 34
e 31 35
e 31 36
e 31 37
e 31 38
e 31 39
e 31 40
e 31 41
e 31 42
e 31 43
e 31 44
e 31 45
e 31 46
e 31 47
e 31 48
e 31 49
e 50 51
e 50 52
e 50 53
e 50 54
e 50 55
e 50 56
e 50 57
e 50 58
e 50 59
e 50 60
e 50 61
e 50 62
e 50 63
e 50 64
e 50 65
e 50 66
e 50 67
e 68 69
e 68 70
e 68 71
e 68 72
e 68 73
e 68 74
e 68 75
e 68 76
e 68 77
e 68 78
e 68 79
e 68 80
e 68 81
e 68 82
e 68 83
e 68 84
e 68 85
e 68 86
e 68 87
e 68 88
e 68 89
e 68 90
e 68 91
e 68 92
e 68 93
e 68 94
e 68 95
e 68 96
e 68 97
e 68 98
e 68 99
e 68 100
e 68 101
e 68 102
e 68 103
e 68 104
e 68 105
e 68 106
e 68 107
e 68 108
e 68 109
e 68 110
e 68 111
e 68 112
e 68 113
e 68 114
e 68 115
e 68 116
e 68 117
e 68 118
e 68 119
e 68 120
e 68 121
e 68 122
e 68 123
e 68 124
e 68 125
e 126 127
e 126 128
e 126 129
e 126 130
e 126 131
e 126 132
e 126 133
e 126 134
e 126 135
e 126 136
e 126 137
e 126 138
e 126 139
e 126 140
e 126 141
e 126 142
e 126 143
e 126 144
e 126 145
e 126 146
e 126 147
e 126 148
e 126 149
e 126 150
e 126 151
e 126 152
e 126 153
e 126 154
e 126 155
e 126 156
e 126 157
e 126 158
e 126 159
e 126 160
e 126 161
e 126 162
e 126 163
e 126 164
e 126 165
e 126 166
e 126 167
e 126 168
e 126 169
e 126 170
e 126 171
e 126 172
e 126 173
e 126 174
e 126 175
e 126 176
e 126 177
e 126 178
e 126 179
e 126 180
e 126 181
e 126 182
e 126 183
e 126 184
e 126 185
e 126 186
e 187 188
e 187 189
e 187 190
e 187 191
e 187 192
e 187 193
e 187 194
e 187 195
e 187 196
e 187 197
e 187 198
e 187 199
e 187 200
e 187 201
e 187 202
e 187 203
e 187 204
e 187 205
e 187 206
e 187 207
e 187 208
e 187 209
e 187 210
e 187 211
e 212 213
e 212 214
e 212 215
e 212 216
e 212 217
e 212 218
e 212 219
e 212 220
e 212 221
e 212 222
e 223 224
e 223 225
e 223 226
e 223 227
e 223 228
e 223 229
e 223 230
e 223 231
e 223 232
e 223 233
e 223 234
e 223 235
e 223 236
e 223 237
e 223 238
e 223 239
e 223 240
e 223 241
e 223 242
e 223 243
e 223 244
e 223 245
e 223 246
e 223 247
e 223 248
e 223 249
e 223 250
e 223 251
e 223 252
e 223 253
e 223 254
e 223 255
e 223 256
e 223 257
e 223 258
e 223 259
e 223 260
e 223 261
e 223 262
e 223 263
e 223 264
e 223 265
e 223 266
e 223 267
e 223 268
e 223 269
e 223 270
e 223 271
e 223 272
e 223 273
e 223 274
e 275 276
e 275 277
e 275 278
e 275 279
e 275 280
e 275 281
e 275 282
e 275 283
e 275 284
e 275 285
e 275 286
e 275 287
e 275 288
e 275 289
e 275 290
e 275 291
e 275 292
e 275 293
e 275 294
e 275 295
e 275 296
e 275 297
e 275 298
e 275 299
e 275 300
e 275 301
e 275 302
e 275 303
e 275 304
e 275 305
e 275 306
e 275 307
e 275 308
e 275 309
e 275 310
e 275 311
e 275 312
e 275 313
e 275 314
e 275 315
e 275 316
e 275 317
e 275 318
e 275 319
e 275 320
e 275 321
e 275 322
e 275 323
e 275 324
e 275 325
e 275 326
e 275 327
e 275 328
e 275 329
e 330 331
e 330 332
e 330 333
e 330 334
e 330 335
e 330 336
e 330 337
e 330 338
e 330 339
e 330 340
e 330 341
e 330 342
e 330 343
e 330 344
e 330 345
e 330 346
e 330 347
e 330 348
e 330 349
e 330 350
e 330 351
e 330 352
e 330 353
e 330 354
e 330 355
e 330 356
e 330 357
e 330 358
e 330 359
e 330 360
e 330 361
e 330 362
e 330 363
e 330 364
e 330 365
e 330 366
e 330 367
e 330 368
e 330 369
e 370 371
e 370 372
e 370 373
e 370 374
e 370 375
e 370 376
e 370 377
e 370 378
e 370 379
e 370 380
e 370 381
e 370 382
e 370 383
e 370 384
e 370 385
e 370 386
e 370 387
e 370 388
e 389 390
e 389 391
e 389 392
e 389 393
e 389 394
e 389 395
e 389 396
e 389 397
e 389 398
e 389 399
e 389 400
e 389 401
e 389 402
e 389 403
e 389 404
e 389 405
e 389 406
e 389 407
e 389 408
e 389 409
e 389 410
e 389 411
e 389 412
e 389 413
e 389 414
e 389 415
e 389 416
e 389 417
e 389 418
e 389 419
e 389 420
e 389 421
e 389 422
e 389 423
e 389 424
e 389 425
e 389 426
e 389 427
e 389 428
e 389 429
e 389 430
e 389 431
e 389 432
e 389 433
e 389 434
e 389 435
e 389 436
e 389 437
e 389 438
e 389 439
e 389 440
e 389 441
e 442 443
e 442 444
e 442 445
e 442 446
e 442 447
e 442 448
e 442 449
e 442 450
e 442 451
e 442 452
e 442 453
e 442 454
e 442 455
e 442 456
e 442 457
e 442 458
e 442 459
e 442 460
e 442 461
e 442 462
e 442 463
e 442 464
e 442 465
e 442 466
e 442 467
e 442 468
e 442 469
e 442 470
e 442 471
e 442 472
e 442 473
e 442 474
e 442 475
e 442 476
e 442 477
e 442 478
e 442 479
e 442 480
e 442 481
e 442 482
e 442 483
e 442 484
e 442 485
e 442 486
e 487 488
e 487 489
e 487 490
e 487 491
e 487 492
e 487 493
e 487 494
e 487 495
e 487 496
e 487 497
e 487 498
e 487 499
e 487 500
e 487 501
e 487 502
e 487 503
e 487 504
e 487 505
e 487 506
e 487 507
e 487 508
e 487 509
e 487 510
e 487 511
e 487 512
e 487 513
e 487 514
e 487 515
e 487 516
e 487 517
e 487 518
e 487 519
e 487 520
e 487 521
e 487 522
e 487 523
e 487 524
e 487 525
e 487 526
e 487 527
e 487 528
e 529 530
e 529 531
e 529 532
e 529 533
e 529 534
e 529 535
e 529 536
e 529 537
e 529 538
e 529 539
e 529 540
e 529 541
e 529 542
e 529 543
e 529 544
e 529 545
e 529 546
e 529 547
e 529 548
e 529 549
e 529 550
e 551 552
e 551 553
e 551 554
e 551 555
e 551 556
e 551 557
e 551 558
e 551 559
e 551 560
e 551 561
e 551 562
e 551 563
e 551 564
e 551 565
e 551 566
e 551 567
e 551 568
e 551 569
e 570 571
e 570 572
e 570 573
e 570 574
e 570 575
e 570 576
e 570 577
e 570 578
e 570 579
e 570 580
e 570 581
e 570 582
e 570 583
e 570 584
e 570 585
e 570 586
e 570 587
e 570 588
e 570 589
e 570 590
e 570 591
e 570 592
e 570 593
e 570 594
e 570 595
e 570 596
e 570 597
e 570 598
e 570 599
e 570 600
e 570 601
e 570 602
e 570 603
e 570 604
e 570 605
e 570 606
e 570 607
e 608 609
e 608 610
e 608 611
e 608 612
e 608 613
e 608 614
e 608 615
e 608 616
e 608 617
e 608 618
e 619 620
e 619 621
e 619 622
e 619 623
e 619 624
e 619 625
e 619 626
e 619 627
e 619 628
e 619 629
e 619 630
e 619 631
e 619 632
e 619 633
e 619 634
e 619 635
e 619 636
e 619 637
e 619 638
e 619 639
e 619 640
e 619 641
e 619 642
e 643 644
e 643 645
e 643 646
e 643 647
e 643 648
e 643 649
e 643 650
e 643 651
e 643 652
e 643 653
e 643 654
e 643 655
e 643 656
e 643 657
e 643 658
e 643 659
e 643 660
e 643 661
e 643 662
e 643 663
e 643 664
e 643 665
e 643 666
e 643 667
e 643 668
e 643 669
e 643 670
e 643 671
e 643 672
e 643 673
e 643 674
e 643 675
e 643 676
e 643 677
e 643 678
e 679 680
e 679 681
e 679 682
e 679 683
e 679 684
e 679 685
e 679 686
e 679 687
e 679 688
e 679 689
e 690 691
e 690 692
e 690 693
e 690 694
e 690 695
e 690 696
e 690 697
e 690 698
e 690 699
e 690 700
e 690 701
e 690 702
e 690 703
e 690 704
e 690 705
e 690 706
e 690 707
e 690 708
e 690 709
e 690 710
e 690 711
e 690 712
e 690 713
e 690 714
e 690 715
e 690 716
e 690 717
e 690 718
e 690 719
e 720 721
e 720 722
e 720 723
e 720 724
e 720 725
e 720 726
e 720 727
e 720 728
e 720 729
e 720 730
e 720 731
e 720 732
e 720 733
e 720 734
e 720 735
e 720 736
e 720 737
e 720 738
e 720 739
e 720 740
e 720 741
e 720 742
e 720 743
e 720 744
e 720 745
e 746 747
e 746 748
e 746 749
e 746 750
e 746 751
e 746 752
e 746 753
e 746 754
e 746 755
e 746 756
e 746 757
e 746 758
e 746 759
e 746 760
e 746 761
e 746 762
e 746 763
e 746 764
e 746 765
e 746 766
e 746 767
e 746 768
e 746 769
e 746 770
e 746 771
e 746 772
e 746 773
e 746 774
e 746 775
e 746 776
e 746 777
e 778 779
e 778 780
e 778 781
e 778 782
e 778 783
e 778 784
e 778 785
e 778 786
e 778 787
e 778 788
e 778 789
e 778 790
e 778 791
e 778 792
e 778 793
e 778 794
e 778 795
e 778 796
e 778 797
e 778 798
e 778 799
e 778 800
e 778 801
e 778 802
e 778 803
e 778 804
e 778 805
e 778 806
e 778 807
e 778 808
e 778 809
e 778 810
e 778 811
e 778 812
e 778 813
e 778 814
e 778 815
e 778 816
e 778 817
e 778 818
e 778 819
e 778 820
e 778 821
e 778 822
e 778 823
e 778 824
e 778 825
e 778 826
e 778 827
e 778 828
e 778 829
e 778 830
e 778 831
e 778 832
e 778 833
e 778 834
e 835 836
e 835 837
e 835 838
e 835 839
e 835 840
e 835 841
e 835 842
e 835 843
e 835 844
e 835 845
e 835 846
e 835 847
e 835 848
e 835 849
e 835 850
e 835 851
e 835 852
e 835 853
e 835 854
e 835 855
e 835 856
e 835 857
e 835 858
e 835 859
e 835 860
e 835 861
e 835 862
e 835 863
e 835 864
e 835 865
e 835 866
e 835 867
e 835 868
e 835 869
e 835 870
e 835 871
e 835 872
e 835 873
e 835 874
e 835 875
e 835 876
e 835 877
e 835 878
e 835 879
e 835 880
e 835 881
e 835 882
e 835 883
e 835 884
e 835 885
e 835 886
e 835 887
e 835 888
e 889 890
e 889 891
e 889 892
e 889 893
e 889 894
e 889 895
e 889 896
e 889 897
e 889 898
e 889 899
e 889 900
e 889 901
e 889 902
e 889 903
e 889 904
e 889 905
e 889 906
e 889 907
e 889 908
e 889 909
e 889 910
e 889 911
e 889 912
e 889 913
e 889 914
e 889 915
e 889 916
e 889 917
e 889 918
e 889 919
e 889 920
e 889 921
e 889 922
e 889 923
e 889 924
e 889 925
e 889 926
e 889 927
e 889 928
e 889 929
e 889 930
e 889 931
e 889 932
e 889 933
e 889 934
e 889 935
e 889 936
e 889 937
e 889 938
e 889 939
e 889 940
e 889 941
e 889 942
e 889 943
e 889 944
e 945 946
e 945 947
e 945 948
e 945 949
e 945 950
e 945 951
e 945 952
e 945 953
e 945 954
e 945 955
e 945 956
e 945 957
e 945 958
e 945 959
e 945 960
e 945 961
e 945 962
e 945 963
e 945 964
e 945 965
e 966 967
e 966 968
e 966 969
e 966 970
e 966 971
e 966 972
e 966 973
e 966 974
e 966 975
e 966 976
e 966 977
e 966 978
e 966 979
e 966 980
e 966 981
e 966 982
e 966 983
e 966 984
e 966 985
e 966 986
e 966 987
e 966 988
e 966 989
e 966 990
e 966 991
e 966 992
e 966 993
e 966 994
e 966 995
e 966 996
e 966 997
e 966 998
e 966 999
e 966 1000
e 966 1001
e 966 1002
e 966 1003
e 966 1004
e 966 1005
e 966 1006
e 966 1007
e 966 1008
e 966 1009
e 966 1010
e 966 1011
e 966 1012
e 966 1013
e 966 1014
e 966 1015
e 1016 1017
e 1016 1018
e 1016 1019
e 1016 1020
e 1016 1021
e 1016 1022
e 1016 1023
e 1016 1024
e 1016 1025
e 1016 1026
e 1016 1027
e 1016 1028
e 1016 1029
e 1016 1030
e 1016 1031
e 1016 1032
e 1016 1033
e 1016 1034
e 1016 1035
e 1016 1036
e 1016 1037
e 1016 1038
e 1016 1039
e 1016 1040
e 1016 1041
e 1016 1042
e 1016 1043
e 1016 1044
e 1016 1045
e 1016 1046
e 1016 1047
e 1016 1048
e 1016 1049
e 1016 1050
e 1016 1051
e 1016 1052
e 1016 1053
e 1016 1054
e 1016 1055
e 1016 1056
e 1016 1057
e 1016 1058
e 1016 1059
e 1016 1060
e 1016 1061
e 1016 1062
e 1016 1063
e 1016 1064
e 1016 1065
e 1016 1066
e 1016 1067
e 1016 1068
e 1016 1069
e 1016 1070
e 1016 1071
e 1016 1072
e 1016 1073
e 1016 1074
e 1075 1076
e 1075 1077
e 1075 1078
e 1075 1079
e 1075 1080
e 1075 1081
e 1075 1082
e 1075 1083
e 1075 1084
e 1075 1085
e 1075 1086
e 1087 1088
e 1087 1089
e 1087 1090
e 1087 1091
e 1087 1092
e 1087 1093
e 1087 1094
e 1087 1095
e 1087 1096
e 1087 1097
e 1087 1098
e 1087 1099
e 1087 1100
e 1087 1101
e 1087 1102
e 1087 1103
e 1087 1104
e 1087 1105
e 1087 1106
e 1087 1107
e 1087 1108
e 1087 1109
e 1087 1110
e 1087 1111
e 1087 1112
e 1087 1113
e 1087 1114
e 1087 1115
e 1087 1116
e 1087 1117
e 1087 1118
e 1087 1119
e 1087 1120
e 1087 1121
e 1087 1122
e 1087 1123
e 1087 1124
e 1087 1125
e 1087 1126
e 1127 1128
e 1127 1129
e 1127 1130
e 1127 1131
e 1127 1132
e 1127 1133
e 1127 1134
e 1127 1135
e 1127 1136
e 1127 1137
e 1127 1138
e 1127 1139
e 1127 1140
e 1127 1141
e 1127 1142
e 1127 1143
e 1144 1145
e 1144 1146
e 1144 1147
e 1144 1148
e 1144 1149
e 1144 1150
e 1144 1151
e 1144 1152
e 1144 1153
e 1144 1154
e 1144 1155
e 1144 1156
e 1144 1157
e 1144 1158
e 1144 1159
e 1144 1160
e 1144 1161
e 1144 1162
e 1144 1163
e 1144 1164
e 1144 1165
e 1144 1166
e 1144 1167
e 1144 1168
e 1144 1169
e 1144 1170
e 1144 1171
e 1144 1172
e 1144 1173
e 1144 1174
e 1144 1175
e 1144 1176
e 1144 1177
e 1144 1178
e 1144 1179
e 1144 1180
e 1181 1182
e 1181 1183
e 1181 1184
e 1181 1185
e 1181 1186
e 1181 1187
e 1181 1188
e 1181 1189
e 1181 1190
e 1181 1191
e 1181 1192
e 1181 1193
e 1181 1194
e 1181 1195
e 1181 1196
e 1181 1197
e 1181 1198
e 1181 1199
e 1181 1200
e 1181 1201
e 1181 1202
e 1181 1203
e 1181 1204
e 1181 1205
e 1181 1206
e 1181 1207
e 1181 1208
e 1181 1209
e 1210 1211
e 1210 1212
e 1210 1213
e 1210 1214
e 1210 1215
e 1210 1216
e 1210 1217
e 1210 1218
e 1210 1219
e 1210 1220
e 1210 1221
e 1210 1222
e 1210 1223
e 1210 1224
e 1210 1225
e 1210 1226
e 1210 1227
e 1210 1228
e 1210 1229
e 1210 1230
e 1210 1231
e 1210 1232
e 1210 1233
e 1210 1234
e 1210 1235
e 1210 1236
e 1210 1237
e 1238 1239
e 1238 1240
e 1238 1241
e 1238 1242
e 1238 1243
e 1238 1244
e 1238 1245
e 1238 1246
e 1238 1247
e 1238 1248
e 1238 1249
e 1238 1250
e 1238 1251
e 1238 1252
e 1238 1253
e 1238 1254
e 1238 1255
e 1238 1256
e 1238 1257
e 1238 1258
e 1238 1259
e 1238 1260
e 1238 1261
e 1238 1262
e 1238 1263
e 1238 1264
e 1238 1265
e 1238 1266
e 1238 1267
e 1238 1268
e 1238 1269
e 1238 1270
e 1238 1271
e 1238 1272
e 1238 1273
e 1238 1274
e 1238 1275
e 1238 1276
e 1238 1277
e 1238 1278
e 1238 1279
e 1280 1281
e 1280 1282
e 1280 1283
e 1280 1284
e 1280 1285
e 1280 1286
e 1280 1287
e 1280 1288
e 1280 1289
e 1280 1290
e 1280 1291
e 1280 1292
e 1280 1293
e 1280 1294
e 1280 1295
e 1280 1296
e 1280 1297
e 1280 1298
e 1280 1299
e 1280 1300
e 1280 1301
e 1280 1302
e 1280 1303
e 1280 1304
e 1280 1305
e 1280 1306
e 1280 1307
e 1280 1308
e 1280 1309
e 1280 1310
e 1280 1311
e 1280 1312
e 1280 1313
e 1280 1314
e 1280 1315
e 1280 1316
e 1317 1318
e 1317 1319
e 1317 1320
e 1317 1321
e 1317 1322
e 1317 1323
e 1317 1324
e 1317 1325
e 1317 1326
e 1317 1327
e 1317 1328
e 1317 1329
e 1317 1330
e 1317 1331
e 1317 1332
e 1317 1333
e 1317 1334
e 1317 1335
e 1317 1336
e 1317 1337
e 1317 1338
e 1317 1339
e 1317 1340
e 1317 1341
e 1317 1342
e 1317 1343
e 1317 1344
e 1317 1345
e 1317 1346
e 1317 1347
e 1317 1348
e 1317 1349
e 1317 1350
e 1317 1351
e 1317 1352
e 1317 1353
e 1317 1354
e 1317 1355
e 1317 1356
e 1317 1357
e 1317 1358
e 1317 1359
e 1317 1360
e 1317 1361
e 1362 1363
e 1362 1364
e 1362 1365
e 1362 1366
e 1362 1367
e 1362 1368
e 1362 1369
e 1362 1370
e 1362 1371
e 1362 1372
e 1362 1373
e 1362 1374
e 1362 1375
e 1362 1376
e 1362 1377
e 1362 1378
e 1362 1379
e 1362 1380
e 1362 1381
e 1362 1382
e 1362 1383
e 1362 1384
e 1362 1385
e 1362 1386
e 1362 1387
e 1362 1388
e 1362 1389
e 1362 1390
e 1362 1391
e 1362 1392
e 1362 1393
e 1362 1394
e 1362 1395
e 1362 1396
e 1362 1397
e 1362 1398
e 1362 1399
